%datafile

NAceitesVegetales = 6;
NAceitesNoVegetales = 5;

Meses = 8;

K = 8;

T = 75;

Precios = [| 60, 120, 130, 80, 200, 120, 90, 120, 75, 190, 140
           | 130, 70, 200, 90, 115, 60, 110, 90, 75, 190, 120,
           | 110, 140, 200, 100, 95, 80, 60, 90, 200, 115, 80,
           | 70, 110, 180, 120, 90, 90, 110, 190, 115, 160, 80,
           | 100, 60, 150, 170, 105, 90, 86, 126, 81, 85, 180,
           | 110, 70, 120, 200, 135, 60, 96, 136, 181, 80, 129,
           | 110, 190, 60, 130, 125, 70, 170, 126, 85, 100, 130,
           | 120, 70, 200, 90, 80, 115, 90, 190, 90, 129, 111 |];

PreciosMensual = [70, 120, 130, 180, 20, 160, 90, 200];

MAXV = 400;
MAXN = 380;

MCAP = 1000;
MCAPR = 75;

CA = 3;
CAR = 5;

MinD = 3.5;
MaxD = 4.3;

Durezas = [8.8, 6.1, 2.0, 4.2, 5.0, 3.5, 6.0, 3.8, 1.4, 9.0, 5.4];

RestanteFinal = [11, 3, 7, 9, 12, 7, 9, 5, 14, 34, 2];

AceitesAUsar = [| false, false, false, false, false, false, false, false, false, true, true
                | false, false, false, false, false, false, false, false, true, true, true
                | false, false, false, false, false, false, false, false, false, false, false
                | false, false, false, false, true, true, false, false, false, false, false
                | false, true, false, false, false, false, false, false, false, false, false
                | false, false, true, false, false, false, false, false, true, false, false
                | false, false, false, false, true, false, true, false, false, false, false
                | false, true, false, false, false, false, false, false, false, false, true
                | false, false, true, false, false, true, false, true, false, false, false
                | false, false, false, false, true, false, false, false, false, true, false
                | false, true, false, false, false, false, false, false, false, true, false |];

MinB = 270000;